DATASET = "thpack2";
INSTANCE = "041";

WIDTH = 233;
HEIGHT = 220;
LENGTH = 587;

NO_OF_SHAPES = 5;
size = [|
  109,80,68 |
  90,45,31 |
  66,56,34 |
  76,66,34 |
  111,80,53 |
|];

verticality = [|
  1,1,1 |
  0,1,1 |
  1,1,1 |
  0,1,1 |
  0,1,1 |
|];

box_count = [
  20,
  17,
  20,
  21,
  20,
];
